p cnf 600 2600
-600 -599 0
-600 -598 0
-600 -234 0
-600 -228 0
-600 -219 0
-600 -195 0
-600 -75 0
-600 -42 0
-599 -598 0
-599 -233 0
-599 -227 0
-599 -218 0
-599 -194 0
-599 -74 0
-599 -41 0
-598 -232 0
-598 -226 0
-598 -217 0
-598 -193 0
-598 -73 0
-598 -40 0
-597 -596 0
-597 -595 0
-597 -492 0
-597 -264 0
-597 -108 0
-597 -90 0
-597 -48 0
-597 -33 0
-596 -595 0
-596 -491 0
-596 -263 0
-596 -107 0
-596 -89 0
-596 -47 0
-596 -32 0
-595 -490 0
-595 -262 0
-595 -106 0
-595 -88 0
-595 -46 0
-595 -31 0
-594 -593 0
-594 -592 0
-594 -579 0
-594 -294 0
-594 -240 0
-594 -186 0
-594 -135 0
-594 -75 0
-593 -592 0
-593 -578 0
-593 -293 0
-593 -239 0
-593 -185 0
-593 -134 0
-593 -74 0
-592 -577 0
-592 -292 0
-592 -238 0
-592 -184 0
-592 -133 0
-592 -73 0
-591 -590 0
-591 -589 0
-591 -585 0
-591 -462 0
-591 -339 0
-591 -276 0
-591 -237 0
-591 -57 0
-590 -589 0
-590 -584 0
-590 -461 0
-590 -338 0
-590 -275 0
-590 -236 0
-590 -56 0
-589 -583 0
-589 -460 0
-589 -337 0
-589 -274 0
-589 -235 0
-589 -55 0
-588 -587 0
-588 -586 0
-588 -501 0
-588 -459 0
-588 -294 0
-588 -204 0
-588 -45 0
-588 -15 0
-587 -586 0
-587 -500 0
-587 -458 0
-587 -293 0
-587 -203 0
-587 -44 0
-587 -14 0
-586 -499 0
-586 -457 0
-586 -292 0
-586 -202 0
-586 -43 0
-586 -13 0
-585 -584 0
-585 -583 0
-585 -408 0
-585 -264 0
-585 -246 0
-585 -243 0
-585 -150 0
-584 -583 0
-584 -407 0
-584 -263 0
-584 -245 0
-584 -242 0
-584 -149 0
-583 -406 0
-583 -262 0
-583 -244 0
-583 -241 0
-583 -148 0
-582 -581 0
-582 -580 0
-582 -573 0
-582 -492 0
-582 -264 0
-582 -168 0
-582 -72 0
-582 -33 0
-581 -580 0
-581 -572 0
-581 -491 0
-581 -263 0
-581 -167 0
-581 -71 0
-581 -32 0
-580 -571 0
-580 -490 0
-580 -262 0
-580 -166 0
-580 -70 0
-580 -31 0
-579 -578 0
-579 -577 0
-579 -549 0
-579 -375 0
-579 -141 0
-579 -138 0
-579 -6 0
-578 -577 0
-578 -548 0
-578 -374 0
-578 -140 0
-578 -137 0
-578 -5 0
-577 -547 0
-577 -373 0
-577 -139 0
-577 -136 0
-577 -4 0
-576 -575 0
-576 -574 0
-576 -543 0
-576 -396 0
-576 -387 0
-576 -330 0
-576 -312 0
-576 -204 0
-575 -574 0
-575 -542 0
-575 -395 0
-575 -386 0
-575 -329 0
-575 -311 0
-575 -203 0
-574 -541 0
-574 -394 0
-574 -385 0
-574 -328 0
-574 -310 0
-574 -202 0
-573 -572 0
-573 -571 0
-573 -351 0
-573 -312 0
-573 -297 0
-573 -156 0
-573 -117 0
-572 -571 0
-572 -350 0
-572 -311 0
-572 -296 0
-572 -155 0
-572 -116 0
-571 -349 0
-571 -310 0
-571 -295 0
-571 -154 0
-571 -115 0
-570 -569 0
-570 -568 0
-570 -330 0
-570 -261 0
-570 -252 0
-570 -189 0
-570 -126 0
-570 -93 0
-569 -568 0
-569 -329 0
-569 -260 0
-569 -251 0
-569 -188 0
-569 -125 0
-569 -92 0
-568 -328 0
-568 -259 0
-568 -250 0
-568 -187 0
-568 -124 0
-568 -91 0
-567 -566 0
-567 -565 0
-567 -558 0
-567 -507 0
-567 -429 0
-567 -318 0
-567 -105 0
-567 -24 0
-566 -565 0
-566 -557 0
-566 -506 0
-566 -428 0
-566 -317 0
-566 -104 0
-566 -23 0
-565 -556 0
-565 -505 0
-565 -427 0
-565 -316 0
-565 -103 0
-565 -22 0
-564 -563 0
-564 -562 0
-564 -540 0
-564 -417 0
-564 -396 0
-564 -348 0
-564 -102 0
-564 -78 0
-563 -562 0
-563 -539 0
-563 -416 0
-563 -395 0
-563 -347 0
-563 -101 0
-563 -77 0
-562 -538 0
-562 -415 0
-562 -394 0
-562 -346 0
-562 -100 0
-562 -76 0
-561 -560 0
-561 -559 0
-561 -453 0
-561 -423 0
-561 -180 0
-561 -168 0
-561 -81 0
-561 -69 0
-560 -559 0
-560 -452 0
-560 -422 0
-560 -179 0
-560 -167 0
-560 -80 0
-560 -68 0
-559 -451 0
-559 -421 0
-559 -178 0
-559 -166 0
-559 -79 0
-559 -67 0
-558 -557 0
-558 -556 0
-558 -399 0
-558 -357 0
-558 -183 0
-558 -36 0
-558 -33 0
-557 -556 0
-557 -398 0
-557 -356 0
-557 -182 0
-557 -35 0
-557 -32 0
-556 -397 0
-556 -355 0
-556 -181 0
-556 -34 0
-556 -31 0
-555 -554 0
-555 -553 0
-555 -393 0
-555 -375 0
-555 -195 0
-555 -186 0
-555 -99 0
-555 -45 0
-554 -553 0
-554 -392 0
-554 -374 0
-554 -194 0
-554 -185 0
-554 -98 0
-554 -44 0
-553 -391 0
-553 -373 0
-553 -193 0
-553 -184 0
-553 -97 0
-553 -43 0
-552 -551 0
-552 -550 0
-552 -522 0
-552 -492 0
-552 -378 0
-552 -363 0
-552 -162 0
-552 -114 0
-551 -550 0
-551 -521 0
-551 -491 0
-551 -377 0
-551 -362 0
-551 -161 0
-551 -113 0
-550 -520 0
-550 -490 0
-550 -376 0
-550 -361 0
-550 -160 0
-550 -112 0
-549 -548 0
-549 -547 0
-549 -354 0
-549 -147 0
-549 -78 0
-549 -51 0
-549 -30 0
-548 -547 0
-548 -353 0
-548 -146 0
-548 -77 0
-548 -50 0
-548 -29 0
-547 -352 0
-547 -145 0
-547 -76 0
-547 -49 0
-547 -28 0
-546 -545 0
-546 -544 0
-546 -498 0
-546 -351 0
-546 -285 0
-546 -228 0
-546 -177 0
-546 -105 0
-545 -544 0
-545 -497 0
-545 -350 0
-545 -284 0
-545 -227 0
-545 -176 0
-545 -104 0
-544 -496 0
-544 -349 0
-544 -283 0
-544 -226 0
-544 -175 0
-544 -103 0
-543 -542 0
-543 -541 0
-543 -363 0
-543 -324 0
-543 -207 0
-543 -84 0
-543 -42 0
-542 -541 0
-542 -362 0
-542 -323 0
-542 -206 0
-542 -83 0
-542 -41 0
-541 -361 0
-541 -322 0
-541 -205 0
-541 -82 0
-541 -40 0
-540 -539 0
-540 -538 0
-540 -477 0
-540 -339 0
-540 -240 0
-540 -222 0
-540 -111 0
-539 -538 0
-539 -476 0
-539 -338 0
-539 -239 0
-539 -221 0
-539 -110 0
-538 -475 0
-538 -337 0
-538 -238 0
-538 -220 0
-538 -109 0
-537 -536 0
-537 -535 0
-537 -528 0
-537 -462 0
-537 -459 0
-537 -291 0
-537 -150 0
-537 -132 0
-536 -535 0
-536 -527 0
-536 -461 0
-536 -458 0
-536 -290 0
-536 -149 0
-536 -131 0
-535 -526 0
-535 -460 0
-535 -457 0
-535 -289 0
-535 -148 0
-535 -130 0
-534 -533 0
-534 -532 0
-534 -513 0
-534 -510 0
-534 -459 0
-534 -354 0
-534 -345 0
-534 -147 0
-533 -532 0
-533 -512 0
-533 -509 0
-533 -458 0
-533 -353 0
-533 -344 0
-533 -146 0
-532 -511 0
-532 -508 0
-532 -457 0
-532 -352 0
-532 -343 0
-532 -145 0
-531 -530 0
-531 -529 0
-531 -417 0
-531 -318 0
-531 -294 0
-531 -213 0
-531 -177 0
-531 -135 0
-530 -529 0
-530 -416 0
-530 -317 0
-530 -293 0
-530 -212 0
-530 -176 0
-530 -134 0
-529 -415 0
-529 -316 0
-529 -292 0
-529 -211 0
-529 -175 0
-529 -133 0
-528 -527 0
-528 -526 0
-528 -513 0
-528 -489 0
-528 -444 0
-528 -279 0
-528 -72 0
-527 -526 0
-527 -512 0
-527 -488 0
-527 -443 0
-527 -278 0
-527 -71 0
-526 -511 0
-526 -487 0
-526 -442 0
-526 -277 0
-526 -70 0
-525 -524 0
-525 -523 0
-525 -522 0
-525 -489 0
-525 -270 0
-525 -192 0
-525 -99 0
-525 -54 0
-524 -523 0
-524 -521 0
-524 -488 0
-524 -269 0
-524 -191 0
-524 -98 0
-524 -53 0
-523 -520 0
-523 -487 0
-523 -268 0
-523 -190 0
-523 -97 0
-523 -52 0
-522 -521 0
-522 -520 0
-522 -510 0
-522 -453 0
-522 -267 0
-522 -42 0
-521 -520 0
-521 -509 0
-521 -452 0
-521 -266 0
-521 -41 0
-520 -508 0
-520 -451 0
-520 -265 0
-520 -40 0
-519 -518 0
-519 -517 0
-519 -450 0
-519 -435 0
-519 -342 0
-519 -282 0
-519 -261 0
-519 -219 0
-518 -517 0
-518 -449 0
-518 -434 0
-518 -341 0
-518 -281 0
-518 -260 0
-518 -218 0
-517 -448 0
-517 -433 0
-517 -340 0
-517 -280 0
-517 -259 0
-517 -217 0
-516 -515 0
-516 -514 0
-516 -411 0
-516 -303 0
-516 -297 0
-516 -192 0
-516 -72 0
-516 -30 0
-515 -514 0
-515 -410 0
-515 -302 0
-515 -296 0
-515 -191 0
-515 -71 0
-515 -29 0
-514 -409 0
-514 -301 0
-514 -295 0
-514 -190 0
-514 -70 0
-514 -28 0
-513 -512 0
-513 -511 0
-513 -480 0
-513 -321 0
-513 -246 0
-513 -87 0
-512 -511 0
-512 -479 0
-512 -320 0
-512 -245 0
-512 -86 0
-511 -478 0
-511 -319 0
-511 -244 0
-511 -85 0
-510 -509 0
-510 -508 0
-510 -417 0
-510 -357 0
-510 -297 0
-510 -255 0
-509 -508 0
-509 -416 0
-509 -356 0
-509 -296 0
-509 -254 0
-508 -415 0
-508 -355 0
-508 -295 0
-508 -253 0
-507 -506 0
-507 -505 0
-507 -330 0
-507 -300 0
-507 -228 0
-507 -99 0
-507 -24 0
-506 -505 0
-506 -329 0
-506 -299 0
-506 -227 0
-506 -98 0
-506 -23 0
-505 -328 0
-505 -298 0
-505 -226 0
-505 -97 0
-505 -22 0
-504 -503 0
-504 -502 0
-504 -480 0
-504 -462 0
-504 -417 0
-504 -369 0
-504 -144 0
-504 -129 0
-503 -502 0
-503 -479 0
-503 -461 0
-503 -416 0
-503 -368 0
-503 -143 0
-503 -128 0
-502 -478 0
-502 -460 0
-502 -415 0
-502 -367 0
-502 -142 0
-502 -127 0
-501 -500 0
-501 -499 0
-501 -315 0
-501 -117 0
-501 -93 0
-501 -69 0
-501 -36 0
-500 -499 0
-500 -314 0
-500 -116 0
-500 -92 0
-500 -68 0
-500 -35 0
-499 -313 0
-499 -115 0
-499 -91 0
-499 -67 0
-499 -34 0
-498 -497 0
-498 -496 0
-498 -453 0
-498 -321 0
-498 -276 0
-498 -141 0
-498 -39 0
-497 -496 0
-497 -452 0
-497 -320 0
-497 -275 0
-497 -140 0
-497 -38 0
-496 -451 0
-496 -319 0
-496 -274 0
-496 -139 0
-496 -37 0
-495 -494 0
-495 -493 0
-495 -486 0
-495 -432 0
-495 -396 0
-495 -183 0
-495 -165 0
-495 -27 0
-494 -493 0
-494 -485 0
-494 -431 0
-494 -395 0
-494 -182 0
-494 -164 0
-494 -26 0
-493 -484 0
-493 -430 0
-493 -394 0
-493 -181 0
-493 -163 0
-493 -25 0
-492 -491 0
-492 -490 0
-492 -429 0
-492 -390 0
-492 -219 0
-491 -490 0
-491 -428 0
-491 -389 0
-491 -218 0
-490 -427 0
-490 -388 0
-490 -217 0
-489 -488 0
-489 -487 0
-489 -408 0
-489 -300 0
-489 -240 0
-489 -120 0
-488 -487 0
-488 -407 0
-488 -299 0
-488 -239 0
-488 -119 0
-487 -406 0
-487 -298 0
-487 -238 0
-487 -118 0
-486 -485 0
-486 -484 0
-486 -438 0
-486 -405 0
-486 -336 0
-486 -186 0
-486 -81 0
-485 -484 0
-485 -437 0
-485 -404 0
-485 -335 0
-485 -185 0
-485 -80 0
-484 -436 0
-484 -403 0
-484 -334 0
-484 -184 0
-484 -79 0
-483 -482 0
-483 -481 0
-483 -369 0
-483 -363 0
-483 -321 0
-483 -303 0
-483 -168 0
-483 -54 0
-482 -481 0
-482 -368 0
-482 -362 0
-482 -320 0
-482 -302 0
-482 -167 0
-482 -53 0
-481 -367 0
-481 -361 0
-481 -319 0
-481 -301 0
-481 -166 0
-481 -52 0
-480 -479 0
-480 -478 0
-480 -261 0
-480 -180 0
-480 -147 0
-480 -90 0
-479 -478 0
-479 -260 0
-479 -179 0
-479 -146 0
-479 -89 0
-478 -259 0
-478 -178 0
-478 -145 0
-478 -88 0
-477 -476 0
-477 -475 0
-477 -420 0
-477 -342 0
-477 -306 0
-477 -201 0
-477 -171 0
-476 -475 0
-476 -419 0
-476 -341 0
-476 -305 0
-476 -200 0
-476 -170 0
-475 -418 0
-475 -340 0
-475 -304 0
-475 -199 0
-475 -169 0
-474 -473 0
-474 -472 0
-474 -225 0
-474 -204 0
-474 -174 0
-474 -99 0
-474 -27 0
-474 -3 0
-473 -472 0
-473 -224 0
-473 -203 0
-473 -173 0
-473 -98 0
-473 -26 0
-473 -2 0
-472 -223 0
-472 -202 0
-472 -172 0
-472 -97 0
-472 -25 0
-472 -1 0
-471 -470 0
-471 -469 0
-471 -384 0
-471 -333 0
-471 -258 0
-471 -231 0
-471 -96 0
-471 -42 0
-470 -469 0
-470 -383 0
-470 -332 0
-470 -257 0
-470 -230 0
-470 -95 0
-470 -41 0
-469 -382 0
-469 -331 0
-469 -256 0
-469 -229 0
-469 -94 0
-469 -40 0
-468 -467 0
-468 -466 0
-468 -426 0
-468 -354 0
-468 -327 0
-468 -129 0
-468 -87 0
-468 -48 0
-467 -466 0
-467 -425 0
-467 -353 0
-467 -326 0
-467 -128 0
-467 -86 0
-467 -47 0
-466 -424 0
-466 -352 0
-466 -325 0
-466 -127 0
-466 -85 0
-466 -46 0
-465 -464 0
-465 -463 0
-465 -411 0
-465 -279 0
-465 -234 0
-465 -183 0
-465 -168 0
-465 -54 0
-464 -463 0
-464 -410 0
-464 -278 0
-464 -233 0
-464 -182 0
-464 -167 0
-464 -53 0
-463 -409 0
-463 -277 0
-463 -232 0
-463 -181 0
-463 -166 0
-463 -52 0
-462 -461 0
-462 -460 0
-462 -348 0
-462 -126 0
-462 -96 0
-461 -460 0
-461 -347 0
-461 -125 0
-461 -95 0
-460 -346 0
-460 -124 0
-460 -94 0
-459 -458 0
-459 -457 0
-459 -396 0
-459 -384 0
-459 -18 0
-458 -457 0
-458 -395 0
-458 -383 0
-458 -17 0
-457 -394 0
-457 -382 0
-457 -16 0
-456 -455 0
-456 -454 0
-456 -423 0
-456 -384 0
-456 -333 0
-456 -324 0
-456 -234 0
-456 -105 0
-455 -454 0
-455 -422 0
-455 -383 0
-455 -332 0
-455 -323 0
-455 -233 0
-455 -104 0
-454 -421 0
-454 -382 0
-454 -331 0
-454 -322 0
-454 -232 0
-454 -103 0
-453 -452 0
-453 -451 0
-453 -288 0
-453 -258 0
-453 -60 0
-452 -451 0
-452 -287 0
-452 -257 0
-452 -59 0
-451 -286 0
-451 -256 0
-451 -58 0
-450 -449 0
-450 -448 0
-450 -426 0
-450 -402 0
-450 -339 0
-450 -258 0
-450 -246 0
-449 -448 0
-449 -425 0
-449 -401 0
-449 -338 0
-449 -257 0
-449 -245 0
-448 -424 0
-448 -400 0
-448 -337 0
-448 -256 0
-448 -244 0
-447 -446 0
-447 -445 0
-447 -405 0
-447 -351 0
-447 -234 0
-447 -117 0
-447 -39 0
-447 -24 0
-446 -445 0
-446 -404 0
-446 -350 0
-446 -233 0
-446 -116 0
-446 -38 0
-446 -23 0
-445 -403 0
-445 -349 0
-445 -232 0
-445 -115 0
-445 -37 0
-445 -22 0
-444 -443 0
-444 -442 0
-444 -309 0
-444 -162 0
-444 -159 0
-444 -150 0
-444 -81 0
-443 -442 0
-443 -308 0
-443 -161 0
-443 -158 0
-443 -149 0
-443 -80 0
-442 -307 0
-442 -160 0
-442 -157 0
-442 -148 0
-442 -79 0
-441 -440 0
-441 -439 0
-441 -402 0
-441 -327 0
-441 -285 0
-441 -258 0
-441 -234 0
-441 -114 0
-440 -439 0
-440 -401 0
-440 -326 0
-440 -284 0
-440 -257 0
-440 -233 0
-440 -113 0
-439 -400 0
-439 -325 0
-439 -283 0
-439 -256 0
-439 -232 0
-439 -112 0
-438 -437 0
-438 -436 0
-438 -303 0
-438 -192 0
-438 -186 0
-438 -129 0
-438 -84 0
-437 -436 0
-437 -302 0
-437 -191 0
-437 -185 0
-437 -128 0
-437 -83 0
-436 -301 0
-436 -190 0
-436 -184 0
-436 -127 0
-436 -82 0
-435 -434 0
-435 -433 0
-435 -339 0
-435 -267 0
-435 -246 0
-435 -66 0
-435 -33 0
-434 -433 0
-434 -338 0
-434 -266 0
-434 -245 0
-434 -65 0
-434 -32 0
-433 -337 0
-433 -265 0
-433 -244 0
-433 -64 0
-433 -31 0
-432 -431 0
-432 -430 0
-432 -375 0
-432 -282 0
-432 -237 0
-432 -231 0
-432 -204 0
-431 -430 0
-431 -374 0
-431 -281 0
-431 -236 0
-431 -230 0
-431 -203 0
-430 -373 0
-430 -280 0
-430 -235 0
-430 -229 0
-430 -202 0
-429 -428 0
-429 -427 0
-429 -420 0
-429 -336 0
-429 -288 0
-429 -231 0
-428 -427 0
-428 -419 0
-428 -335 0
-428 -287 0
-428 -230 0
-427 -418 0
-427 -334 0
-427 -286 0
-427 -229 0
-426 -425 0
-426 -424 0
-426 -231 0
-426 -222 0
-426 -21 0
-426 -9 0
-425 -424 0
-425 -230 0
-425 -221 0
-425 -20 0
-425 -8 0
-424 -229 0
-424 -220 0
-424 -19 0
-424 -7 0
-423 -422 0
-423 -421 0
-423 -273 0
-423 -174 0
-423 -144 0
-423 -6 0
-422 -421 0
-422 -272 0
-422 -173 0
-422 -143 0
-422 -5 0
-421 -271 0
-421 -172 0
-421 -142 0
-421 -4 0
-420 -419 0
-420 -418 0
-420 -414 0
-420 -309 0
-420 -267 0
-420 -96 0
-419 -418 0
-419 -413 0
-419 -308 0
-419 -266 0
-419 -95 0
-418 -412 0
-418 -307 0
-418 -265 0
-418 -94 0
-417 -416 0
-417 -415 0
-417 -381 0
-417 -144 0
-416 -415 0
-416 -380 0
-416 -143 0
-415 -379 0
-415 -142 0
-414 -413 0
-414 -412 0
-414 -387 0
-414 -306 0
-414 -222 0
-414 -186 0
-414 -180 0
-413 -412 0
-413 -386 0
-413 -305 0
-413 -221 0
-413 -185 0
-413 -179 0
-412 -385 0
-412 -304 0
-412 -220 0
-412 -184 0
-412 -178 0
-411 -410 0
-411 -409 0
-411 -381 0
-411 -318 0
-411 -36 0
-411 -21 0
-410 -409 0
-410 -380 0
-410 -317 0
-410 -35 0
-410 -20 0
-409 -379 0
-409 -316 0
-409 -34 0
-409 -19 0
-408 -407 0
-408 -406 0
-408 -387 0
-408 -354 0
-408 -351 0
-408 -120 0
-407 -406 0
-407 -386 0
-407 -353 0
-407 -350 0
-407 -119 0
-406 -385 0
-406 -352 0
-406 -349 0
-406 -118 0
-405 -404 0
-405 -403 0
-405 -402 0
-405 -330 0
-405 -201 0
-405 -66 0
-404 -403 0
-404 -401 0
-404 -329 0
-404 -200 0
-404 -65 0
-403 -400 0
-403 -328 0
-403 -199 0
-403 -64 0
-402 -401 0
-402 -400 0
-402 -171 0
-402 -141 0
-402 -111 0
-401 -400 0
-401 -170 0
-401 -140 0
-401 -110 0
-400 -169 0
-400 -139 0
-400 -109 0
-399 -398 0
-399 -397 0
-399 -348 0
-399 -324 0
-399 -306 0
-399 -147 0
-399 -117 0
-398 -397 0
-398 -347 0
-398 -323 0
-398 -305 0
-398 -146 0
-398 -116 0
-397 -346 0
-397 -322 0
-397 -304 0
-397 -145 0
-397 -115 0
-396 -395 0
-396 -394 0
-396 -339 0
-396 -312 0
-395 -394 0
-395 -338 0
-395 -311 0
-394 -337 0
-394 -310 0
-393 -392 0
-393 -391 0
-393 -366 0
-393 -321 0
-393 -162 0
-393 -144 0
-393 -57 0
-392 -391 0
-392 -365 0
-392 -320 0
-392 -161 0
-392 -143 0
-392 -56 0
-391 -364 0
-391 -319 0
-391 -160 0
-391 -142 0
-391 -55 0
-390 -389 0
-390 -388 0
-390 -378 0
-390 -243 0
-390 -177 0
-390 -96 0
-390 -48 0
-389 -388 0
-389 -377 0
-389 -242 0
-389 -176 0
-389 -95 0
-389 -47 0
-388 -376 0
-388 -241 0
-388 -175 0
-388 -94 0
-388 -46 0
-387 -386 0
-387 -385 0
-387 -231 0
-387 -219 0
-387 -18 0
-386 -385 0
-386 -230 0
-386 -218 0
-386 -17 0
-385 -229 0
-385 -217 0
-385 -16 0
-384 -383 0
-384 -382 0
-384 -150 0
-384 -129 0
-384 -105 0
-383 -382 0
-383 -149 0
-383 -128 0
-383 -104 0
-382 -148 0
-382 -127 0
-382 -103 0
-381 -380 0
-381 -379 0
-381 -336 0
-381 -231 0
-381 -174 0
-381 -45 0
-380 -379 0
-380 -335 0
-380 -230 0
-380 -173 0
-380 -44 0
-379 -334 0
-379 -229 0
-379 -172 0
-379 -43 0
-378 -377 0
-378 -376 0
-378 -363 0
-378 -279 0
-378 -216 0
-378 -51 0
-377 -376 0
-377 -362 0
-377 -278 0
-377 -215 0
-377 -50 0
-376 -361 0
-376 -277 0
-376 -214 0
-376 -49 0
-375 -374 0
-375 -373 0
-375 -213 0
-375 -150 0
-375 -123 0
-374 -373 0
-374 -212 0
-374 -149 0
-374 -122 0
-373 -211 0
-373 -148 0
-373 -121 0
-372 -371 0
-372 -370 0
-372 -318 0
-372 -276 0
-372 -249 0
-372 -84 0
-372 -72 0
-372 -66 0
-371 -370 0
-371 -317 0
-371 -275 0
-371 -248 0
-371 -83 0
-371 -71 0
-371 -65 0
-370 -316 0
-370 -274 0
-370 -247 0
-370 -82 0
-370 -70 0
-370 -64 0
-369 -368 0
-369 -367 0
-369 -261 0
-369 -228 0
-369 -150 0
-369 -12 0
-368 -367 0
-368 -260 0
-368 -227 0
-368 -149 0
-368 -11 0
-367 -259 0
-367 -226 0
-367 -148 0
-367 -10 0
-366 -365 0
-366 -364 0
-366 -189 0
-366 -165 0
-366 -108 0
-366 -96 0
-366 -60 0
-365 -364 0
-365 -188 0
-365 -164 0
-365 -107 0
-365 -95 0
-365 -59 0
-364 -187 0
-364 -163 0
-364 -106 0
-364 -94 0
-364 -58 0
-363 -362 0
-363 -361 0
-363 -240 0
-363 -66 0
-362 -361 0
-362 -239 0
-362 -65 0
-361 -238 0
-361 -64 0
-360 -359 0
-360 -358 0
-360 -330 0
-360 -198 0
-360 -138 0
-360 -60 0
-360 -39 0
-360 -33 0
-359 -358 0
-359 -329 0
-359 -197 0
-359 -137 0
-359 -59 0
-359 -38 0
-359 -32 0
-358 -328 0
-358 -196 0
-358 -136 0
-358 -58 0
-358 -37 0
-358 -31 0
-357 -356 0
-357 -355 0
-357 -327 0
-357 -123 0
-357 -51 0
-357 -21 0
-356 -355 0
-356 -326 0
-356 -122 0
-356 -50 0
-356 -20 0
-355 -325 0
-355 -121 0
-355 -49 0
-355 -19 0
-354 -353 0
-354 -352 0
-354 -318 0
-354 -276 0
-353 -352 0
-353 -317 0
-353 -275 0
-352 -316 0
-352 -274 0
-351 -350 0
-351 -349 0
-351 -207 0
-351 -195 0
-350 -349 0
-350 -206 0
-350 -194 0
-349 -205 0
-349 -193 0
-348 -347 0
-348 -346 0
-348 -309 0
-348 -249 0
-348 -114 0
-347 -346 0
-347 -308 0
-347 -248 0
-347 -113 0
-346 -307 0
-346 -247 0
-346 -112 0
-345 -344 0
-345 -343 0
-345 -180 0
-345 -147 0
-345 -132 0
-345 -123 0
-345 -111 0
-344 -343 0
-344 -179 0
-344 -146 0
-344 -131 0
-344 -122 0
-344 -110 0
-343 -178 0
-343 -145 0
-343 -130 0
-343 -121 0
-343 -109 0
-342 -341 0
-342 -340 0
-342 -303 0
-342 -177 0
-342 -15 0
-342 -12 0
-341 -340 0
-341 -302 0
-341 -176 0
-341 -14 0
-341 -11 0
-340 -301 0
-340 -175 0
-340 -13 0
-340 -10 0
-339 -338 0
-339 -337 0
-339 -273 0
-338 -337 0
-338 -272 0
-337 -271 0
-336 -335 0
-336 -334 0
-336 -273 0
-336 -165 0
-336 -84 0
-335 -334 0
-335 -272 0
-335 -164 0
-335 -83 0
-334 -271 0
-334 -163 0
-334 -82 0
-333 -332 0
-333 -331 0
-333 -252 0
-333 -219 0
-333 -69 0
-333 -24 0
-332 -331 0
-332 -251 0
-332 -218 0
-332 -68 0
-332 -23 0
-331 -250 0
-331 -217 0
-331 -67 0
-331 -22 0
-330 -329 0
-330 -328 0
-330 -282 0
-329 -328 0
-329 -281 0
-328 -280 0
-327 -326 0
-327 -325 0
-327 -222 0
-327 -72 0
-327 -51 0
-326 -325 0
-326 -221 0
-326 -71 0
-326 -50 0
-325 -220 0
-325 -70 0
-325 -49 0
-324 -323 0
-324 -322 0
-324 -255 0
-324 -189 0
-324 -81 0
-323 -322 0
-323 -254 0
-323 -188 0
-323 -80 0
-322 -253 0
-322 -187 0
-322 -79 0
-321 -320 0
-321 -319 0
-321 -171 0
-321 -90 0
-320 -319 0
-320 -170 0
-320 -89 0
-319 -169 0
-319 -88 0
-318 -317 0
-318 -316 0
-318 -84 0
-317 -316 0
-317 -83 0
-316 -82 0
-315 -314 0
-315 -313 0
-315 -291 0
-315 -228 0
-315 -63 0
-315 -9 0
-315 -6 0
-314 -313 0
-314 -290 0
-314 -227 0
-314 -62 0
-314 -8 0
-314 -5 0
-313 -289 0
-313 -226 0
-313 -61 0
-313 -7 0
-313 -4 0
-312 -311 0
-312 -310 0
-312 -126 0
-312 -108 0
-312 -21 0
-311 -310 0
-311 -125 0
-311 -107 0
-311 -20 0
-310 -124 0
-310 -106 0
-310 -19 0
-309 -308 0
-309 -307 0
-309 -282 0
-309 -129 0
-309 -60 0
-308 -307 0
-308 -281 0
-308 -128 0
-308 -59 0
-307 -280 0
-307 -127 0
-307 -58 0
-306 -305 0
-306 -304 0
-306 -300 0
-306 -216 0
-306 -183 0
-305 -304 0
-305 -299 0
-305 -215 0
-305 -182 0
-304 -298 0
-304 -214 0
-304 -181 0
-303 -302 0
-303 -301 0
-303 -225 0
-303 -15 0
-302 -301 0
-302 -224 0
-302 -14 0
-301 -223 0
-301 -13 0
-300 -299 0
-300 -298 0
-300 -189 0
-300 -159 0
-300 -90 0
-299 -298 0
-299 -188 0
-299 -158 0
-299 -89 0
-298 -187 0
-298 -157 0
-298 -88 0
-297 -296 0
-297 -295 0
-297 -57 0
-297 -54 0
-297 -6 0
-296 -295 0
-296 -56 0
-296 -53 0
-296 -5 0
-295 -55 0
-295 -52 0
-295 -4 0
-294 -293 0
-294 -292 0
-294 -276 0
-294 -273 0
-294 -18 0
-293 -292 0
-293 -275 0
-293 -272 0
-293 -17 0
-292 -274 0
-292 -271 0
-292 -16 0
-291 -290 0
-291 -289 0
-291 -225 0
-291 -195 0
-291 -153 0
-291 -87 0
-290 -289 0
-290 -224 0
-290 -194 0
-290 -152 0
-290 -86 0
-289 -223 0
-289 -193 0
-289 -151 0
-289 -85 0
-288 -287 0
-288 -286 0
-288 -216 0
-288 -39 0
-288 -36 0
-288 -6 0
-287 -286 0
-287 -215 0
-287 -38 0
-287 -35 0
-287 -5 0
-286 -214 0
-286 -37 0
-286 -34 0
-286 -4 0
-285 -284 0
-285 -283 0
-285 -243 0
-285 -240 0
-285 -213 0
-285 -126 0
-284 -283 0
-284 -242 0
-284 -239 0
-284 -212 0
-284 -125 0
-283 -241 0
-283 -238 0
-283 -211 0
-283 -124 0
-282 -281 0
-282 -280 0
-282 -216 0
-282 -180 0
-281 -280 0
-281 -215 0
-281 -179 0
-280 -214 0
-280 -178 0
-279 -278 0
-279 -277 0
-279 -213 0
-279 -51 0
-279 -9 0
-278 -277 0
-278 -212 0
-278 -50 0
-278 -8 0
-277 -211 0
-277 -49 0
-277 -7 0
-276 -275 0
-276 -274 0
-276 -39 0
-275 -274 0
-275 -38 0
-274 -37 0
-273 -272 0
-273 -271 0
-273 -264 0
-273 -39 0
-272 -271 0
-272 -263 0
-272 -38 0
-271 -262 0
-271 -37 0
-270 -269 0
-270 -268 0
-270 -156 0
-270 -132 0
-270 -102 0
-270 -72 0
-270 -30 0
-269 -268 0
-269 -155 0
-269 -131 0
-269 -101 0
-269 -71 0
-269 -29 0
-268 -154 0
-268 -130 0
-268 -100 0
-268 -70 0
-268 -28 0
-267 -266 0
-267 -265 0
-267 -255 0
-267 -171 0
-267 -12 0
-266 -265 0
-266 -254 0
-266 -170 0
-266 -11 0
-265 -253 0
-265 -169 0
-265 -10 0
-264 -263 0
-264 -262 0
-264 -180 0
-264 -3 0
-263 -262 0
-263 -179 0
-263 -2 0
-262 -178 0
-262 -1 0
-261 -260 0
-261 -259 0
-261 -90 0
-261 -60 0
-260 -259 0
-260 -89 0
-260 -59 0
-259 -88 0
-259 -58 0
-258 -257 0
-258 -256 0
-258 -156 0
-258 -99 0
-257 -256 0
-257 -155 0
-257 -98 0
-256 -154 0
-256 -97 0
-255 -254 0
-255 -253 0
-255 -192 0
-255 -153 0
-255 -135 0
-254 -253 0
-254 -191 0
-254 -152 0
-254 -134 0
-253 -190 0
-253 -151 0
-253 -133 0
-252 -251 0
-252 -250 0
-252 -219 0
-252 -189 0
-252 -141 0
-252 -18 0
-251 -250 0
-251 -218 0
-251 -188 0
-251 -140 0
-251 -17 0
-250 -217 0
-250 -187 0
-250 -139 0
-250 -16 0
-249 -248 0
-249 -247 0
-249 -216 0
-249 -120 0
-249 -90 0
-249 -78 0
-248 -247 0
-248 -215 0
-248 -119 0
-248 -89 0
-248 -77 0
-247 -214 0
-247 -118 0
-247 -88 0
-247 -76 0
-246 -245 0
-246 -244 0
-246 -162 0
-246 -63 0
-245 -244 0
-245 -161 0
-245 -62 0
-244 -160 0
-244 -61 0
-243 -242 0
-243 -241 0
-243 -141 0
-243 -93 0
-243 -27 0
-242 -241 0
-242 -140 0
-242 -92 0
-242 -26 0
-241 -139 0
-241 -91 0
-241 -25 0
-240 -239 0
-240 -238 0
-240 -57 0
-239 -238 0
-239 -56 0
-238 -55 0
-237 -236 0
-237 -235 0
-237 -207 0
-237 -156 0
-237 -138 0
-237 -30 0
-236 -235 0
-236 -206 0
-236 -155 0
-236 -137 0
-236 -29 0
-235 -205 0
-235 -154 0
-235 -136 0
-235 -28 0
-234 -233 0
-234 -232 0
-234 -30 0
-233 -232 0
-233 -29 0
-232 -28 0
-231 -230 0
-231 -229 0
-230 -229 0
-228 -227 0
-228 -226 0
-228 -156 0
-227 -226 0
-227 -155 0
-226 -154 0
-225 -224 0
-225 -223 0
-225 -171 0
-225 -162 0
-225 -42 0
-224 -223 0
-224 -170 0
-224 -161 0
-224 -41 0
-223 -169 0
-223 -160 0
-223 -40 0
-222 -221 0
-222 -220 0
-222 -24 0
-222 -15 0
-221 -220 0
-221 -23 0
-221 -14 0
-220 -22 0
-220 -13 0
-219 -218 0
-219 -217 0
-218 -217 0
-216 -215 0
-216 -214 0
-216 -27 0
-215 -214 0
-215 -26 0
-214 -25 0
-213 -212 0
-213 -211 0
-213 -9 0
-213 -3 0
-212 -211 0
-212 -8 0
-212 -2 0
-211 -7 0
-211 -1 0
-210 -209 0
-210 -208 0
-210 -207 0
-210 -171 0
-210 -129 0
-210 -120 0
-210 -36 0
-210 -27 0
-209 -208 0
-209 -206 0
-209 -170 0
-209 -128 0
-209 -119 0
-209 -35 0
-209 -26 0
-208 -205 0
-208 -169 0
-208 -127 0
-208 -118 0
-208 -34 0
-208 -25 0
-207 -206 0
-207 -205 0
-207 -183 0
-207 -105 0
-206 -205 0
-206 -182 0
-206 -104 0
-205 -181 0
-205 -103 0
-204 -203 0
-204 -202 0
-204 -168 0
-204 -3 0
-203 -202 0
-203 -167 0
-203 -2 0
-202 -166 0
-202 -1 0
-201 -200 0
-201 -199 0
-201 -195 0
-201 -189 0
-201 -75 0
-201 -69 0
-200 -199 0
-200 -194 0
-200 -188 0
-200 -74 0
-200 -68 0
-199 -193 0
-199 -187 0
-199 -73 0
-199 -67 0
-198 -197 0
-198 -196 0
-198 -195 0
-198 -183 0
-198 -66 0
-198 -45 0
-198 -21 0
-197 -196 0
-197 -194 0
-197 -182 0
-197 -65 0
-197 -44 0
-197 -20 0
-196 -193 0
-196 -181 0
-196 -64 0
-196 -43 0
-196 -19 0
-195 -194 0
-195 -193 0
-194 -193 0
-192 -191 0
-192 -190 0
-192 -162 0
-192 -117 0
-191 -190 0
-191 -161 0
-191 -116 0
-190 -160 0
-190 -115 0
-189 -188 0
-189 -187 0
-188 -187 0
-186 -185 0
-186 -184 0
-186 -81 0
-185 -184 0
-185 -80 0
-184 -79 0
-183 -182 0
-183 -181 0
-182 -181 0
-180 -179 0
-180 -178 0
-179 -178 0
-177 -176 0
-177 -175 0
-177 -135 0
-177 -105 0
-176 -175 0
-176 -134 0
-176 -104 0
-175 -133 0
-175 -103 0
-174 -173 0
-174 -172 0
-174 -111 0
-174 -87 0
-174 -54 0
-173 -172 0
-173 -110 0
-173 -86 0
-173 -53 0
-172 -109 0
-172 -85 0
-172 -52 0
-171 -170 0
-171 -169 0
-170 -169 0
-168 -167 0
-168 -166 0
-168 -144 0
-167 -166 0
-167 -143 0
-166 -142 0
-165 -164 0
-165 -163 0
-165 -63 0
-165 -48 0
-165 -45 0
-164 -163 0
-164 -62 0
-164 -47 0
-164 -44 0
-163 -61 0
-163 -46 0
-163 -43 0
-162 -161 0
-162 -160 0
-161 -160 0
-159 -158 0
-159 -157 0
-159 -138 0
-159 -126 0
-159 -15 0
-159 -3 0
-158 -157 0
-158 -137 0
-158 -125 0
-158 -14 0
-158 -2 0
-157 -136 0
-157 -124 0
-157 -13 0
-157 -1 0
-156 -155 0
-156 -154 0
-156 -123 0
-155 -154 0
-155 -122 0
-154 -121 0
-153 -152 0
-153 -151 0
-153 -114 0
-153 -33 0
-153 -24 0
-153 -12 0
-152 -151 0
-152 -113 0
-152 -32 0
-152 -23 0
-152 -11 0
-151 -112 0
-151 -31 0
-151 -22 0
-151 -10 0
-150 -149 0
-150 -148 0
-149 -148 0
-147 -146 0
-147 -145 0
-147 -108 0
-146 -145 0
-146 -107 0
-145 -106 0
-144 -143 0
-144 -142 0
-144 -135 0
-143 -142 0
-143 -134 0
-142 -133 0
-141 -140 0
-141 -139 0
-141 -81 0
-140 -139 0
-140 -80 0
-139 -79 0
-138 -137 0
-138 -136 0
-138 -78 0
-138 -15 0
-137 -136 0
-137 -77 0
-137 -14 0
-136 -76 0
-136 -13 0
-135 -134 0
-135 -133 0
-135 -123 0
-134 -133 0
-134 -122 0
-133 -121 0
-132 -131 0
-132 -130 0
-132 -123 0
-132 -114 0
-132 -54 0
-131 -130 0
-131 -122 0
-131 -113 0
-131 -53 0
-130 -121 0
-130 -112 0
-130 -52 0
-129 -128 0
-129 -127 0
-128 -127 0
-126 -125 0
-126 -124 0
-126 -99 0
-125 -124 0
-125 -98 0
-124 -97 0
-123 -122 0
-123 -121 0
-122 -121 0
-120 -119 0
-120 -118 0
-120 -93 0
-120 -57 0
-119 -118 0
-119 -92 0
-119 -56 0
-118 -91 0
-118 -55 0
-117 -116 0
-117 -115 0
-117 -108 0
-116 -115 0
-116 -107 0
-115 -106 0
-114 -113 0
-114 -112 0
-114 -111 0
-113 -112 0
-113 -110 0
-112 -109 0
-111 -110 0
-111 -109 0
-111 -63 0
-110 -109 0
-110 -62 0
-109 -61 0
-108 -107 0
-108 -106 0
-108 -75 0
-107 -106 0
-107 -74 0
-106 -73 0
-105 -104 0
-105 -103 0
-104 -103 0
-102 -101 0
-102 -100 0
-102 -96 0
-102 -66 0
-102 -63 0
-102 -42 0
-101 -100 0
-101 -95 0
-101 -65 0
-101 -62 0
-101 -41 0
-100 -94 0
-100 -64 0
-100 -61 0
-100 -40 0
-99 -98 0
-99 -97 0
-98 -97 0
-96 -95 0
-96 -94 0
-95 -94 0
-93 -92 0
-93 -91 0
-93 -78 0
-93 -9 0
-92 -91 0
-92 -77 0
-92 -8 0
-91 -76 0
-91 -7 0
-90 -89 0
-90 -88 0
-89 -88 0
-87 -86 0
-87 -85 0
-87 -75 0
-87 -48 0
-86 -85 0
-86 -74 0
-86 -47 0
-85 -73 0
-85 -46 0
-84 -83 0
-84 -82 0
-84 -69 0
-83 -82 0
-83 -68 0
-82 -67 0
-81 -80 0
-81 -79 0
-80 -79 0
-78 -77 0
-78 -76 0
-78 -9 0
-77 -76 0
-77 -8 0
-76 -7 0
-75 -74 0
-75 -73 0
-75 -45 0
-74 -73 0
-74 -44 0
-73 -43 0
-72 -71 0
-72 -70 0
-71 -70 0
-69 -68 0
-69 -67 0
-69 -30 0
-68 -67 0
-68 -29 0
-67 -28 0
-66 -65 0
-66 -64 0
-65 -64 0
-63 -62 0
-63 -61 0
-63 -51 0
-62 -61 0
-62 -50 0
-61 -49 0
-60 -59 0
-60 -58 0
-60 -27 0
-59 -58 0
-59 -26 0
-58 -25 0
-57 -56 0
-57 -55 0
-57 -12 0
-56 -55 0
-56 -11 0
-55 -10 0
-54 -53 0
-54 -52 0
-53 -52 0
-51 -50 0
-51 -49 0
-50 -49 0
-48 -47 0
-48 -46 0
-48 -18 0
-47 -46 0
-47 -17 0
-46 -16 0
-45 -44 0
-45 -43 0
-44 -43 0
-42 -41 0
-42 -40 0
-41 -40 0
-39 -38 0
-39 -37 0
-38 -37 0
-36 -35 0
-36 -34 0
-36 -12 0
-35 -34 0
-35 -11 0
-34 -10 0
-33 -32 0
-33 -31 0
-32 -31 0
-30 -29 0
-30 -28 0
-29 -28 0
-27 -26 0
-27 -25 0
-26 -25 0
-24 -23 0
-24 -22 0
-23 -22 0
-21 -20 0
-21 -19 0
-21 -18 0
-20 -19 0
-20 -17 0
-19 -16 0
-18 -17 0
-18 -16 0
-17 -16 0
-15 -14 0
-15 -13 0
-14 -13 0
-12 -11 0
-12 -10 0
-11 -10 0
-9 -8 0
-9 -7 0
-8 -7 0
-6 -5 0
-6 -4 0
-6 -3 0
-5 -4 0
-5 -2 0
-4 -1 0
-3 -2 0
-3 -1 0
-2 -1 0
1 2 3 0
4 5 6 0
7 8 9 0
10 11 12 0
13 14 15 0
16 17 18 0
19 20 21 0
22 23 24 0
25 26 27 0
28 29 30 0
31 32 33 0
34 35 36 0
37 38 39 0
40 41 42 0
43 44 45 0
46 47 48 0
49 50 51 0
52 53 54 0
55 56 57 0
58 59 60 0
61 62 63 0
64 65 66 0
67 68 69 0
70 71 72 0
73 74 75 0
76 77 78 0
79 80 81 0
82 83 84 0
85 86 87 0
88 89 90 0
91 92 93 0
94 95 96 0
97 98 99 0
100 101 102 0
103 104 105 0
106 107 108 0
109 110 111 0
112 113 114 0
115 116 117 0
118 119 120 0
121 122 123 0
124 125 126 0
127 128 129 0
130 131 132 0
133 134 135 0
136 137 138 0
139 140 141 0
142 143 144 0
145 146 147 0
148 149 150 0
151 152 153 0
154 155 156 0
157 158 159 0
160 161 162 0
163 164 165 0
166 167 168 0
169 170 171 0
172 173 174 0
175 176 177 0
178 179 180 0
181 182 183 0
184 185 186 0
187 188 189 0
190 191 192 0
193 194 195 0
196 197 198 0
199 200 201 0
202 203 204 0
205 206 207 0
208 209 210 0
211 212 213 0
214 215 216 0
217 218 219 0
220 221 222 0
223 224 225 0
226 227 228 0
229 230 231 0
232 233 234 0
235 236 237 0
238 239 240 0
241 242 243 0
244 245 246 0
247 248 249 0
250 251 252 0
253 254 255 0
256 257 258 0
259 260 261 0
262 263 264 0
265 266 267 0
268 269 270 0
271 272 273 0
274 275 276 0
277 278 279 0
280 281 282 0
283 284 285 0
286 287 288 0
289 290 291 0
292 293 294 0
295 296 297 0
298 299 300 0
301 302 303 0
304 305 306 0
307 308 309 0
310 311 312 0
313 314 315 0
316 317 318 0
319 320 321 0
322 323 324 0
325 326 327 0
328 329 330 0
331 332 333 0
334 335 336 0
337 338 339 0
340 341 342 0
343 344 345 0
346 347 348 0
349 350 351 0
352 353 354 0
355 356 357 0
358 359 360 0
361 362 363 0
364 365 366 0
367 368 369 0
370 371 372 0
373 374 375 0
376 377 378 0
379 380 381 0
382 383 384 0
385 386 387 0
388 389 390 0
391 392 393 0
394 395 396 0
397 398 399 0
400 401 402 0
403 404 405 0
406 407 408 0
409 410 411 0
412 413 414 0
415 416 417 0
418 419 420 0
421 422 423 0
424 425 426 0
427 428 429 0
430 431 432 0
433 434 435 0
436 437 438 0
439 440 441 0
442 443 444 0
445 446 447 0
448 449 450 0
451 452 453 0
454 455 456 0
457 458 459 0
460 461 462 0
463 464 465 0
466 467 468 0
469 470 471 0
472 473 474 0
475 476 477 0
478 479 480 0
481 482 483 0
484 485 486 0
487 488 489 0
490 491 492 0
493 494 495 0
496 497 498 0
499 500 501 0
502 503 504 0
505 506 507 0
508 509 510 0
511 512 513 0
514 515 516 0
517 518 519 0
520 521 522 0
523 524 525 0
526 527 528 0
529 530 531 0
532 533 534 0
535 536 537 0
538 539 540 0
541 542 543 0
544 545 546 0
547 548 549 0
550 551 552 0
553 554 555 0
556 557 558 0
559 560 561 0
562 563 564 0
565 566 567 0
568 569 570 0
571 572 573 0
574 575 576 0
577 578 579 0
580 581 582 0
583 584 585 0
586 587 588 0
589 590 591 0
592 593 594 0
595 596 597 0
598 599 600 0
